p cnf 10 42
7 9 1 0
7 -10 -1 0
-3 8 -10 0
2 -4 -6 0
-8 -6 -3 0
-4 -8 -7 0
9 10 -5 0
2 -9 -4 0
7 -2 9 0
4 7 2 0
2 7 5 0
4 8 -3 0
3 -5 7 0
-6 -8 -2 0
-9 -2 -8 0
-6 4 5 0
-5 -9 6 0
-7 -4 -9 0
6 -1 8 0
8 -9 2 0
6 2 8 0
4 7 -3 0
-4 -1 -6 0
8 6 -1 0
8 6 2 0
-5 7 10 0
-3 7 -6 0
2 -9 -6 0
-9 4 10 0
1 -3 8 0
8 10 -9 0
6 7 10 0
-1 -3 -8 0
8 -6 5 0
-6 9 5 0
-4 6 -9 0
6 -3 10 0
-6 2 9 0
-1 3 9 0
4 -10 -9 0
-8 7 -2 0
-10 -4 5 0
